20 64 
1 5 1
1 6 1
1 10 1
1 12 1
1 20 1
2 5 1
2 6 1
2 7 1
2 9 1
2 13 1
2 15 1
3 5 1
3 6 1
3 7 1
3 8 1
3 10 1
3 12 1
3 13 1
3 17 1
3 19 1
4 5 1
4 7 1
4 8 1
4 11 1
4 14 1
4 16 1
4 18 1
5 6 1
5 7 1
5 9 1
5 14 1
5 16 1
5 18 1
5 20 1
6 8 1
6 9 1
6 10 1
6 17 1
6 18 1
7 8 1
7 10 1
7 11 1
7 12 1
7 13 1
7 14 1
7 15 1
7 16 1
7 17 1
7 19 1
7 20 1
8 9 1
8 11 1
8 13 1
8 16 1
8 19 1
9 11 1
9 15 1
10 12 1
10 14 1
13 17 1
13 19 1
14 15 1
16 18 1
18 20 1
